Set parameter Username
Academic license - for non-commercial use only - expires 2022-06-20
Gurobi Optimizer version 9.5.1 build v9.5.1rc2 (mac64[x86])
Thread count: 2 physical cores, 4 logical processors, using up to 4 threads
Optimize a model with 5329 rows, 5184 columns and 20664 nonzeros
Model fingerprint: 0xad72c5fb
Variable types: 0 continuous, 5184 integer (5184 binary)
Coefficient statistics:
  Matrix range     [1e+00, 4e+05]
  Objective range  [2e-01, 6e+00]
  Bounds range     [1e+00, 1e+00]
  RHS range        [1e+00, 8e+00]
Found heuristic solution: objective 148.9008824
Presolve removed 298 rows and 141 columns
Presolve time: 0.08s
Presolved: 5031 rows, 5043 columns, 20420 nonzeros
Variable types: 0 continuous, 5043 integer (5043 binary)
Found heuristic solution: objective 89.5264025

Root relaxation: objective 4.535540e+01, 1522 iterations, 0.12 seconds (0.13 work units)

    Nodes    |    Current Node    |     Objective Bounds      |     Work
 Expl Unexpl |  Obj  Depth IntInf | Incumbent    BestBd   Gap | It/Node Time

     0     0   45.35540    0  230   89.52640   45.35540  49.3%     -    0s
H    0     0                      48.0914300   45.35540  5.69%     -    0s
H    0     0                      48.0107227   45.35540  5.53%     -    0s
H    0     0                      46.9788529   45.35540  3.46%     -    0s
     0     0   45.80681    0  176   46.97885   45.80681  2.49%     -    0s
     0     0   45.80681    0  230   46.97885   45.80681  2.49%     -    0s
H    0     0                      46.4897835   45.80681  1.47%     -    0s
     0     0   45.80681    0  175   46.48978   45.80681  1.47%     -    0s
     0     0   45.80681    0  169   46.48978   45.80681  1.47%     -    1s
     0     0   45.82034    0  182   46.48978   45.82034  1.44%     -    1s
H    0     0                      46.4575874   45.82034  1.37%     -    1s
     0     0   45.91218    0  194   46.45759   45.91218  1.17%     -    1s
     0     0   45.95188    0  209   46.45759   45.95188  1.09%     -    1s
H    0     0                      46.4457596   45.95188  1.06%     -    1s
     0     0   45.99740    0  216   46.44576   45.99740  0.97%     -    1s
     0     0   46.10979    0  268   46.44576   46.10979  0.72%     -    1s
     0     0   46.10979    0   32   46.44576   46.10979  0.72%     -    1s
     0     0   46.10979    0  112   46.44576   46.10979  0.72%     -    1s
     0     0   46.12350    0  156   46.44576   46.12350  0.69%     -    1s
     0     0   46.12438    0  166   46.44576   46.12438  0.69%     -    1s
     0     0   46.12522    0  174   46.44576   46.12522  0.69%     -    1s
     0     0   46.12522    0  174   46.44576   46.12522  0.69%     -    1s
     0     0   46.12645    0   31   46.44576   46.12645  0.69%     -    1s
     0     0   46.12645    0  106   46.44576   46.12645  0.69%     -    1s
     0     0   46.13513    0  151   46.44576   46.13513  0.67%     -    1s
     0     0   46.14807    0  160   46.44576   46.14807  0.64%     -    1s
     0     0   46.17723    0  160   46.44576   46.17723  0.58%     -    1s
     0     0   46.19511    0  197   46.44576   46.19511  0.54%     -    1s
     0     0   46.19530    0  205   46.44576   46.19530  0.54%     -    1s
     0     0   46.19672    0  201   46.44576   46.19672  0.54%     -    1s
     0     0   46.19707    0  198   46.44576   46.19707  0.54%     -    1s
     0     0   46.19795    0  198   46.44576   46.19795  0.53%     -    1s
     0     0   46.19795    0  198   46.44576   46.19795  0.53%     -    1s
     0     0   46.20286    0   28   46.44576   46.20286  0.52%     -    1s
     0     0   46.20286    0  109   46.44576   46.20286  0.52%     -    1s
     0     0   46.20286    0  159   46.44576   46.20286  0.52%     -    1s
     0     0   46.20455    0  157   46.44576   46.20455  0.52%     -    1s
     0     0   46.20455    0  157   46.44576   46.20455  0.52%     -    1s
     0     2   46.21425    0  157   46.44576   46.21425  0.50%     -    2s

Cutting planes:
  MIR: 1
  StrongCG: 4
  GUB cover: 8
  Zero half: 1
  RLT: 1

Explored 21 nodes (8910 simplex iterations) in 2.06 seconds (1.04 work units)
Thread count was 4 (of 4 available processors)

Solution count 8: 46.4458 46.4576 46.4898 ... 148.901

Optimal solution found (tolerance 1.00e-04)
Best objective 4.644575960291e+01, best bound 4.644575960291e+01, gap 0.0000%
Gurobi Optimizer version 9.5.1 build v9.5.1rc2 (mac64[x86])
Thread count: 2 physical cores, 4 logical processors, using up to 4 threads
Optimize a model with 15625 rows, 30096 columns and 104932 nonzeros
Model fingerprint: 0xea531474
Variable types: 24912 continuous, 5184 integer (5184 binary)
Coefficient statistics:
  Matrix range     [1e+00, 4e+05]
  Objective range  [2e-01, 6e+00]
  Bounds range     [1e+00, 1e+00]
  RHS range        [1e+00, 8e+00]

MIP start from previous solve did not produce a new incumbent solution

Presolve removed 808 rows and 1481 columns
Presolve time: 0.59s
Presolved: 14817 rows, 28615 columns, 100406 nonzeros
Variable types: 23579 continuous, 5036 integer (5036 binary)

Deterministic concurrent LP optimizer: primal and dual simplex
Showing first log only...

Concurrent spin time: 0.00s

Solved with dual simplex

Root relaxation: objective 4.535877e+01, 1689 iterations, 0.43 seconds (0.21 work units)

    Nodes    |    Current Node    |     Objective Bounds      |     Work
 Expl Unexpl |  Obj  Depth IntInf | Incumbent    BestBd   Gap | It/Node Time

     0     0   45.35877    0  250          -   45.35877      -     -    1s
     0     0   46.00434    0  218          -   46.00434      -     -    2s
     0     0   46.01243    0  196          -   46.01243      -     -    2s
     0     0   46.12897    0  214          -   46.12897      -     -    3s
     0     0   46.13351    0  226          -   46.13351      -     -    3s
     0     0   46.21514    0  287          -   46.21514      -     -    3s
     0     0   46.21537    0  287          -   46.21537      -     -    4s
     0     0   46.35015    0  234          -   46.35015      -     -    4s
     0     0   46.38523    0  236          -   46.38523      -     -    4s
     0     0   46.39102    0  266          -   46.39102      -     -    4s
     0     0   46.39102    0  266          -   46.39102      -     -    4s
     0     0   46.43323    0  258          -   46.43323      -     -    4s
     0     0   46.43897    0  283          -   46.43897      -     -    5s
     0     0   46.43897    0  283          -   46.43897      -     -    5s
     0     0   46.44267    0  269          -   46.44267      -     -    5s
     0     0   46.46238    0  255          -   46.46238      -     -    5s
     0     0   46.46754    0  241          -   46.46754      -     -    5s
     0     0   46.46754    0  241          -   46.46754      -     -    5s
     0     0   46.48546    0  210          -   46.48546      -     -    5s
     0     0   46.48562    0  223          -   46.48562      -     -    6s
     0     0   46.48562    0  223          -   46.48562      -     -    6s
     0     0   46.48772    0  254          -   46.48772      -     -    6s
     0     0   46.48789    0  246          -   46.48789      -     -    6s
     0     0   46.48820    0  249          -   46.48820      -     -    6s
     0     0   46.48826    0  250          -   46.48826      -     -    6s
     0     0   46.48830    0  256          -   46.48830      -     -    6s
     0     0   46.48846    0  248          -   46.48846      -     -    7s
     0     0   46.48846    0  248          -   46.48846      -     -    7s
     0     2   46.50262    0  248          -   46.50262      -     -   11s
   156   126   49.51116   24   72          -   46.58374      -  90.2   15s
   619   435   46.68889    6  197          -   46.65762      -  79.9   20s
*  663   159              16      48.3427468   46.65762  3.49%  79.7   20s
H  680   111                      47.9951447   46.66570  2.77%  80.5   21s
H  688   105                      47.8291670   46.68889  2.38%  79.8   21s
H  728    99                      47.6047132   46.70296  1.89%  80.5   22s
   729   100   47.34926   11  248   47.60471   46.70296  1.89%  80.4   26s
   741   108   47.58769    9  226   47.60471   46.70296  1.89%  79.1   30s
   752   115   47.46593   12  320   47.60471   46.70296  1.89%  78.0   35s
   756   121   46.70326   10  318   47.60471   46.70326  1.89%  82.5   43s
   782   117     cutoff   16        47.60471   46.70326  1.89%  86.1   45s
* 1000    81              31      47.5806266   46.99817  1.22%  84.6   50s
H 1008    73                      47.4478661   47.01044  0.92%  85.1   50s

Cutting planes:
  Lift-and-project: 13
  Cover: 3
  Implied bound: 1
  MIR: 15
  StrongCG: 8
  Flow cover: 78
  GUB cover: 14
  Zero half: 1
  Network: 10

Explored 1274 nodes (109818 simplex iterations) in 53.59 seconds (36.42 work units)
Thread count was 4 (of 4 available processors)

Solution count 6: 47.4479 47.5806 47.6047 ... 48.3427

Optimal solution found (tolerance 1.00e-04)
Best objective 4.744786610475e+01, best bound 4.744786610475e+01, gap 0.0000%
